p cnf 23 11
a 1 0
e 2 0
a 3 4 0
e 5 0
a 6 0
e 7 8 0
a 9 0
e 10 0
a 11 0
e 12 13 14 15 0
a 16 17 18 19 0
e 20 21 0
a 22 0
e 23 0
-12 14 -2 0
1 17 14 -3 -10 0
9 3 -14 -8 0
-3 -11 -17 5 0
3 -1 10 -15 18 0
16 6 0
13 5 1 10 -20 0
-1 16 -4 12 0
-9 -16 -20 4 0
9 -11 -5 -23 21 0
15 -10 -5 -8 11 0
